<number of tasks>
89

<cycle time>
110

<task times>
1 28
2 17
3 7
4 10
5 12
6 16
7 13
8 8
9 13
10 24
11 16
12 24
13 12
14 20
15 22
16 22
17 22
18 47
19 6
20 12
21 6
22 22
23 7
24 14
25 68
26 15
27 8
28 74
29 32
30 11
31 18
32 15
33 42
34 27
35 38
36 38
37 26
38 35
39 31
40 8
41 14
42 8
43 8
44 8
45 17
46 7
47 19
48 12
49 24
50 26
51 22
52 14
53 27
54 60
55 4
56 2
57 1
58 9
59 5
60 6
61 7
62 12
63 2
64 11
65 14
66 6
67 21
68 14
69 1
70 6
71 21
72 11
73 14
74 28
75 12
76 11
77 30
78 22
79 14
80 31
81 18
82 16
83 7
84 38
85 8
86 31
87 29
88 12
89 18

<precedence relations>
1,2
2,3
3,4
4,5
4,6
4,7
4,8
4,9
5,10
6,11
7,12
8,18
9,18
10,14
11,12
12,13
13,14
14,15
14,16
15,17
16,54
17,18
18,19
18,20
19,22
20,21
20,28
21,54
22,23
23,24
24,25
25,26
25,27
25,29
26,37
27,33
28,29
29,31
30,54
31,32
32,33
33,34
34,35
35,36
35,37
36,38
37,38
38,39
39,40
39,41
39,42
39,43
40,44
41,53
42,53
43,45
44,52
45,46
46,47
47,48
47,49
49,50
50,51
51,52
52,53
53,68
53,69
53,70
53,71
54,55
55,56
56,57
57,58
57,59
57,60
57,61
57,62
57,63
57,64
57,65
57,66
58,67
59,67
60,67
61,67
62,67
63,67
64,67
65,67
66,67
67,73
68,72
69,72
70,72
71,73
72,78
72,80
73,74
74,75
74,76
75,77
76,81
77,78
78,79
79,81
80,81
81,82
81,84
81,85
82,83
83,86
84,86
85,86
86,87
87,88
87,89

<setup times forward>
4,5:7
4,9:3
5,6:7
5,7:7
5,8:7
5,9:10
5,30:7
6,5:7
6,9:3
6,10:7
6,11:7
7,5:7
7,9:3
7,10:7
7,11:7
7,12:7
8,5:7
8,9:3
8,10:7
8,11:7
8,12:7
8,13:7
8,14:7
8,15:3
8,16:4
8,17:3
8,18:3
9,5:10
9,6:3
9,7:3
9,8:3
9,10:10
9,11:10
9,12:10
9,13:10
9,14:10
9,16:1
9,30:3
10,6:7
10,7:7
10,8:7
10,9:10
10,30:7
11,7:7
11,8:7
11,9:10
11,30:7
12,8:7
12,9:10
12,30:7
13,8:7
13,9:10
13,30:7
14,8:7
14,9:10
14,15:10
14,16:11
14,30:7
15,8:3
15,16:1
15,30:3
16,8:4
16,9:1
16,15:1
16,17:1
16,18:1
16,19:1
16,20:7
16,21:6
16,22:7
16,23:6
16,24:6
16,25:6
16,26:6
16,28:7
16,29:4
16,30:4
16,31:4
16,32:4
16,33:4
16,34:2
16,35:2
16,36:8
16,37:2
16,38:8
16,39:8
16,40:4
16,41:1
16,42:3
16,43:1
16,44:4
16,45:1
16,46:1
16,47:1
16,48:5
16,49:1
16,50:4
16,51:4
16,52:4
16,53:3
16,68:6
16,69:6
16,70:6
16,71:3
16,72:6
16,80:9
17,8:3
17,16:1
17,30:3
18,16:1
18,20:6
18,30:3
19,16:1
19,20:6
19,21:5
19,22:6
19,28:6
19,30:3
19,54:1
19,55:1
19,56:1
19,57:1
19,59:3
19,60:7
19,61:1
19,63:3
19,64:5
19,65:3
19,66:1
19,67:5
20,16:7
20,19:6
20,21:1
20,23:1
20,24:1
20,25:1
20,26:1
20,27:7
20,30:3
21,16:6
21,19:5
21,22:1
21,27:6
21,28:1
21,29:2
21,30:2
21,31:2
21,32:2
21,33:2
21,34:8
21,35:8
21,36:2
21,37:8
21,38:2
21,39:2
21,40:10
21,41:5
21,42:3
21,43:5
21,44:10
21,45:5
21,46:5
21,47:5
21,48:11
21,49:5
21,50:10
21,51:10
21,52:10
21,53:3
21,54:6
21,71:3
21,80:3
22,16:7
22,21:1
22,23:1
22,30:3
22,54:7
22,55:7
22,56:7
22,57:7
22,58:6
22,59:9
22,60:1
22,61:7
22,62:6
22,63:3
22,64:11
22,65:9
22,66:7
22,67:11
23,16:6
23,20:1
23,28:1
23,30:2
23,54:6
23,55:6
23,56:6
23,57:6
23,58:5
23,59:8
23,60:2
23,61:6
23,62:5
23,63:2
23,64:10
23,65:8
23,66:6
23,67:10
24,16:6
24,20:1
24,28:1
24,30:2
24,54:6
24,55:6
24,56:6
24,57:6
24,58:5
24,59:8
24,60:2
24,61:6
24,62:5
24,63:2
24,64:10
24,65:8
24,66:6
24,67:10
25,16:6
25,20:1
25,27:6
25,28:1
25,29:2
25,30:2
25,54:6
25,55:6
25,56:6
25,57:6
25,58:5
25,59:8
25,60:2
25,61:6
25,62:5
25,63:2
25,64:10
25,65:8
25,66:6
25,67:10
26,16:6
26,20:1
26,27:6
26,28:1
26,29:2
26,30:2
26,31:2
26,32:2
26,33:2
26,34:8
26,35:8
26,36:2
26,37:8
26,54:6
26,55:6
26,56:6
26,57:6
26,58:5
26,59:8
26,60:2
26,61:6
26,62:5
26,63:2
26,64:10
26,65:8
26,66:6
26,67:10
27,20:7
27,21:6
27,26:6
27,28:7
27,29:4
27,30:4
27,31:4
27,32:4
27,33:4
27,58:1
27,59:2
27,60:8
27,62:1
27,63:4
27,64:4
27,65:2
27,67:4
28,16:7
28,19:6
28,21:1
28,23:1
28,24:1
28,25:1
28,26:1
28,27:7
28,29:3
28,30:3
28,54:7
28,55:7
28,56:7
28,57:7
28,58:6
28,59:9
28,60:1
28,61:7
28,62:6
28,63:3
28,64:11
28,65:9
28,66:7
28,67:11
29,16:4
29,21:2
29,26:2
29,27:4
29,54:4
29,55:4
29,56:4
29,57:4
29,58:3
29,59:6
29,60:4
29,61:4
29,62:3
29,64:8
29,65:6
29,66:4
29,67:8
30,5:7
30,9:3
30,10:7
30,11:7
30,12:7
30,13:7
30,14:7
30,15:3
30,16:4
30,17:3
30,18:3
30,19:3
30,20:3
30,21:2
30,22:3
30,23:2
30,24:2
30,25:2
30,26:2
30,27:4
30,28:3
30,34:6
30,35:6
30,36:4
30,37:6
30,38:4
30,39:4
30,40:8
30,41:3
30,42:1
30,43:3
30,44:8
30,45:3
30,46:3
30,47:3
30,48:9
30,49:3
30,50:8
30,51:8
30,52:8
30,53:1
30,54:4
30,68:2
30,69:2
30,70:2
30,71:1
30,72:2
30,80:5
31,16:4
31,21:2
31,26:2
31,27:4
31,54:4
31,55:4
31,56:4
31,57:4
31,58:3
31,59:6
31,60:4
31,61:4
31,62:3
31,64:8
31,65:6
31,66:4
31,67:8
32,16:4
32,21:2
32,26:2
32,27:4
32,54:4
32,55:4
32,56:4
32,57:4
32,58:3
32,59:6
32,60:4
32,61:4
32,62:3
32,64:8
32,65:6
32,66:4
32,67:8
33,16:4
33,21:2
33,26:2
33,34:6
33,54:4
33,55:4
33,56:4
33,57:4
33,58:3
33,59:6
33,60:4
33,61:4
33,62:3
33,64:8
33,65:6
33,66:4
33,67:8
34,16:2
34,21:8
34,26:8
34,30:6
34,54:2
34,55:2
34,56:2
34,57:2
34,58:3
34,60:10
34,61:2
34,62:3
34,63:6
34,64:2
34,66:2
34,67:2
35,16:2
35,21:8
35,26:8
35,30:6
35,36:10
35,54:2
35,55:2
35,56:2
35,57:2
35,58:3
35,60:10
35,61:2
35,62:3
35,63:6
35,64:2
35,66:2
35,67:2
36,16:8
36,21:2
36,26:2
36,30:4
36,37:10
36,54:8
36,55:8
36,56:8
36,57:8
36,58:7
36,59:10
36,61:8
36,62:7
36,63:4
36,64:12
36,65:10
36,66:8
36,67:12
37,16:2
37,21:8
37,30:6
37,36:10
37,38:10
37,54:2
37,55:2
37,56:2
37,57:2
37,58:3
37,60:10
37,61:2
37,62:3
37,63:6
37,64:2
37,66:2
37,67:2
38,16:8
38,21:2
38,30:4
38,54:8
38,55:8
38,56:8
38,57:8
38,58:7
38,59:10
38,61:8
38,62:7
38,63:4
38,64:12
38,65:10
38,66:8
38,67:12
39,16:8
39,21:2
39,30:4
39,40:12
39,41:7
39,42:5
39,43:7
39,54:8
39,55:8
39,56:8
39,57:8
39,58:7
39,59:10
39,61:8
39,62:7
39,63:4
39,64:12
39,65:10
39,66:8
39,67:12
40,16:4
40,21:10
40,30:8
40,41:5
40,42:7
40,43:5
40,45:5
40,46:5
40,47:5
40,48:1
40,49:5
40,54:4
40,55:4
40,56:4
40,57:4
40,58:5
40,59:2
40,60:12
40,61:4
40,62:5
40,63:8
40,65:2
40,66:4
41,16:1
41,21:5
41,30:3
41,40:5
41,42:2
41,44:5
41,48:6
41,50:5
41,51:5
41,52:5
41,53:2
41,54:1
41,55:1
41,56:1
41,57:1
41,59:3
41,60:7
41,61:1
41,63:3
41,64:5
41,65:3
41,66:1
41,67:5
42,16:3
42,21:3
42,30:1
42,40:7
42,41:2
42,43:2
42,44:7
42,45:2
42,46:2
42,47:2
42,48:8
42,49:2
42,50:7
42,51:7
42,52:7
42,54:3
42,55:3
42,56:3
42,57:3
42,58:2
42,59:5
42,60:5
42,61:3
42,62:2
42,63:1
42,64:7
42,65:5
42,66:3
42,67:7
43,16:1
43,21:5
43,30:3
43,40:5
43,42:2
43,44:5
43,54:1
43,55:1
43,56:1
43,57:1
43,59:3
43,60:7
43,61:1
43,63:3
43,64:5
43,65:3
43,66:1
43,67:5
44,16:4
44,21:10
44,30:8
44,41:5
44,42:7
44,43:5
44,45:5
44,46:5
44,47:5
44,48:1
44,49:5
44,54:4
44,55:4
44,56:4
44,57:4
44,58:5
44,59:2
44,60:12
44,61:4
44,62:5
44,63:8
44,65:2
44,66:4
45,16:1
45,21:5
45,30:3
45,40:5
45,42:2
45,44:5
45,54:1
45,55:1
45,56:1
45,57:1
45,59:3
45,60:7
45,61:1
45,63:3
45,64:5
45,65:3
45,66:1
45,67:5
46,16:1
46,21:5
46,30:3
46,40:5
46,42:2
46,44:5
46,54:1
46,55:1
46,56:1
46,57:1
46,59:3
46,60:7
46,61:1
46,63:3
46,64:5
46,65:3
46,66:1
46,67:5
47,16:1
47,21:5
47,30:3
47,40:5
47,42:2
47,44:5
47,48:6
47,54:1
47,55:1
47,56:1
47,57:1
47,59:3
47,60:7
47,61:1
47,63:3
47,64:5
47,65:3
47,66:1
47,67:5
48,16:5
48,21:11
48,30:9
48,40:1
48,41:6
48,42:8
48,44:1
48,49:6
48,50:1
48,51:1
48,52:1
48,53:8
48,54:5
48,55:5
48,56:5
48,57:5
48,58:6
48,59:3
48,60:13
48,61:5
48,62:6
48,63:9
48,64:1
48,65:3
48,66:5
48,67:1
48,68:11
48,69:11
48,70:11
48,71:8
48,72:11
48,73:8
48,74:8
48,75:11
48,76:8
48,77:11
48,78:11
48,79:11
48,80:14
48,81:14
48,82:14
48,83:14
48,84:14
49,16:1
49,21:5
49,30:3
49,40:5
49,42:2
49,44:5
49,48:6
49,50:5
49,54:1
49,55:1
49,56:1
49,57:1
49,59:3
49,60:7
49,61:1
49,63:3
49,64:5
49,65:3
49,66:1
49,67:5
50,16:4
50,21:10
50,30:8
50,41:5
50,42:7
50,48:1
50,54:4
50,55:4
50,56:4
50,57:4
50,58:5
50,59:2
50,60:12
50,61:4
50,62:5
50,63:8
50,65:2
50,66:4
51,16:4
51,21:10
51,30:8
51,41:5
51,42:7
51,48:1
51,54:4
51,55:4
51,56:4
51,57:4
51,58:5
51,59:2
51,60:12
51,61:4
51,62:5
51,63:8
51,65:2
51,66:4
52,16:4
52,21:10
52,30:8
52,41:5
52,42:7
52,48:1
52,53:7
52,54:4
52,55:4
52,56:4
52,57:4
52,58:5
52,59:2
52,60:12
52,61:4
52,62:5
52,63:8
52,65:2
52,66:4
53,16:3
53,21:3
53,30:1
53,48:8
53,54:3
53,55:3
53,56:3
53,57:3
53,58:2
53,59:5
53,60:5
53,61:3
53,62:2
53,63:1
53,64:7
53,65:5
53,66:3
53,67:7
53,68:3
53,69:3
53,70:3
54,19:1
54,22:7
54,23:6
54,24:6
54,25:6
54,26:6
54,28:7
54,29:4
54,31:4
54,32:4
54,33:4
54,34:2
54,35:2
54,36:8
54,37:2
54,38:8
54,39:8
54,40:4
54,41:1
54,42:3
54,43:1
54,44:4
54,45:1
54,46:1
54,47:1
54,48:5
54,49:1
54,50:4
54,51:4
54,52:4
54,53:3
54,68:6
54,69:6
54,70:6
54,71:3
54,72:6
54,80:9
55,19:1
55,22:7
55,23:6
55,24:6
55,25:6
55,26:6
55,28:7
55,29:4
55,31:4
55,32:4
55,33:4
55,34:2
55,35:2
55,36:8
55,37:2
55,38:8
55,39:8
55,40:4
55,41:1
55,42:3
55,43:1
55,44:4
55,45:1
55,46:1
55,47:1
55,48:5
55,49:1
55,50:4
55,51:4
55,52:4
55,53:3
55,68:6
55,69:6
55,70:6
55,71:3
55,72:6
55,80:9
56,19:1
56,22:7
56,23:6
56,24:6
56,25:6
56,26:6
56,28:7
56,29:4
56,31:4
56,32:4
56,33:4
56,34:2
56,35:2
56,36:8
56,37:2
56,38:8
56,39:8
56,40:4
56,41:1
56,42:3
56,43:1
56,44:4
56,45:1
56,46:1
56,47:1
56,48:5
56,49:1
56,50:4
56,51:4
56,52:4
56,53:3
56,68:6
56,69:6
56,70:6
56,71:3
56,72:6
56,80:9
57,19:1
57,22:7
57,23:6
57,24:6
57,25:6
57,26:6
57,28:7
57,29:4
57,31:4
57,32:4
57,33:4
57,34:2
57,35:2
57,36:8
57,37:2
57,38:8
57,39:8
57,40:4
57,41:1
57,42:3
57,43:1
57,44:4
57,45:1
57,46:1
57,47:1
57,48:5
57,49:1
57,50:4
57,51:4
57,52:4
57,53:3
57,58:1
57,59:2
57,60:8
57,62:1
57,63:4
57,64:4
57,65:2
57,68:6
57,69:6
57,70:6
57,71:3
57,72:6
57,80:9
58,22:6
58,23:5
58,24:5
58,25:5
58,26:5
58,27:1
58,28:6
58,29:3
58,31:3
58,32:3
58,33:3
58,34:3
58,35:3
58,36:7
58,37:3
58,38:7
58,39:7
58,40:5
58,42:2
58,44:5
58,48:6
58,50:5
58,51:5
58,52:5
58,53:2
58,59:3
58,60:7
58,61:1
58,63:3
58,64:5
58,65:3
58,66:1
58,67:5
58,68:5
58,69:5
58,70:5
58,71:2
58,72:5
58,80:8
59,19:3
59,22:9
59,23:8
59,24:8
59,25:8
59,26:8
59,27:2
59,28:9
59,29:6
59,31:6
59,32:6
59,33:6
59,36:10
59,38:10
59,39:10
59,40:2
59,41:3
59,42:5
59,43:3
59,44:2
59,45:3
59,46:3
59,47:3
59,48:3
59,49:3
59,50:2
59,51:2
59,52:2
59,53:5
59,58:3
59,60:10
59,61:2
59,62:3
59,63:6
59,64:2
59,66:2
59,67:2
59,68:8
59,69:8
59,70:8
59,71:5
59,72:8
59,80:11
60,19:7
60,22:1
60,23:2
60,24:2
60,25:2
60,26:2
60,27:8
60,28:1
60,29:4
60,31:4
60,32:4
60,33:4
60,34:10
60,35:10
60,37:10
60,40:12
60,41:7
60,42:5
60,43:7
60,44:12
60,45:7
60,46:7
60,47:7
60,48:13
60,49:7
60,50:12
60,51:12
60,52:12
60,53:5
60,58:7
60,59:10
60,61:8
60,62:7
60,63:4
60,64:12
60,65:10
60,66:8
60,67:12
60,68:2
60,69:2
60,70:2
60,71:5
60,72:2
60,80:1
61,19:1
61,22:7
61,23:6
61,24:6
61,25:6
61,26:6
61,28:7
61,29:4
61,31:4
61,32:4
61,33:4
61,34:2
61,35:2
61,36:8
61,37:2
61,38:8
61,39:8
61,40:4
61,41:1
61,42:3
61,43:1
61,44:4
61,45:1
61,46:1
61,47:1
61,48:5
61,49:1
61,50:4
61,51:4
61,52:4
61,53:3
61,58:1
61,59:2
61,60:8
61,62:1
61,63:4
61,64:4
61,65:2
61,67:4
61,68:6
61,69:6
61,70:6
61,71:3
61,72:6
61,80:9
62,22:6
62,23:5
62,24:5
62,25:5
62,26:5
62,27:1
62,28:6
62,29:3
62,31:3
62,32:3
62,33:3
62,34:3
62,35:3
62,36:7
62,37:3
62,38:7
62,39:7
62,40:5
62,42:2
62,44:5
62,48:6
62,50:5
62,51:5
62,52:5
62,53:2
62,59:3
62,60:7
62,61:1
62,63:3
62,64:5
62,65:3
62,66:1
62,67:5
62,68:5
62,69:5
62,70:5
62,71:2
62,72:5
62,80:8
63,19:3
63,22:3
63,23:2
63,24:2
63,25:2
63,26:2
63,27:4
63,28:3
63,34:6
63,35:6
63,36:4
63,37:6
63,38:4
63,39:4
63,40:8
63,41:3
63,42:1
63,43:3
63,44:8
63,45:3
63,46:3
63,47:3
63,48:9
63,49:3
63,50:8
63,51:8
63,52:8
63,53:1
63,58:3
63,59:6
63,60:4
63,61:4
63,62:3
63,64:8
63,65:6
63,66:4
63,67:8
63,68:2
63,69:2
63,70:2
63,71:1
63,72:2
63,80:5
64,19:5
64,22:11
64,23:10
64,24:10
64,25:10
64,26:10
64,27:4
64,28:11
64,29:8
64,31:8
64,32:8
64,33:8
64,34:2
64,35:2
64,36:12
64,37:2
64,38:12
64,39:12
64,41:5
64,42:7
64,43:5
64,45:5
64,46:5
64,47:5
64,48:1
64,49:5
64,53:7
64,58:5
64,59:2
64,60:12
64,61:4
64,62:5
64,63:8
64,65:2
64,66:4
64,68:10
64,69:10
64,70:10
64,71:7
64,72:10
64,80:13
65,19:3
65,22:9
65,23:8
65,24:8
65,25:8
65,26:8
65,27:2
65,28:9
65,29:6
65,31:6
65,32:6
65,33:6
65,36:10
65,38:10
65,39:10
65,40:2
65,41:3
65,42:5
65,43:3
65,44:2
65,45:3
65,46:3
65,47:3
65,48:3
65,49:3
65,50:2
65,51:2
65,52:2
65,53:5
65,58:3
65,60:10
65,61:2
65,62:3
65,63:6
65,64:2
65,66:2
65,67:2
65,68:8
65,69:8
65,70:8
65,71:5
65,72:8
65,80:11
66,19:1
66,22:7
66,23:6
66,24:6
66,25:6
66,26:6
66,28:7
66,29:4
66,31:4
66,32:4
66,33:4
66,34:2
66,35:2
66,36:8
66,37:2
66,38:8
66,39:8
66,40:4
66,41:1
66,42:3
66,43:1
66,44:4
66,45:1
66,46:1
66,47:1
66,48:5
66,49:1
66,50:4
66,51:4
66,52:4
66,53:3
66,58:1
66,59:2
66,60:8
66,62:1
66,63:4
66,64:4
66,65:2
66,67:4
66,68:6
66,69:6
66,70:6
66,71:3
66,72:6
66,80:9
67,19:5
67,22:11
67,23:10
67,24:10
67,25:10
67,26:10
67,27:4
67,28:11
67,29:8
67,31:8
67,32:8
67,33:8
67,34:2
67,35:2
67,36:12
67,37:2
67,38:12
67,39:12
67,41:5
67,42:7
67,43:5
67,45:5
67,46:5
67,47:5
67,48:1
67,49:5
67,53:7
67,68:10
67,69:10
67,70:10
67,71:7
67,72:10
67,73:7
67,80:13
68,16:6
68,30:2
68,48:11
68,54:6
68,55:6
68,56:6
68,57:6
68,58:5
68,59:8
68,60:2
68,61:6
68,62:5
68,63:2
68,64:10
68,65:8
68,66:6
68,67:10
68,71:3
68,73:3
68,74:3
68,76:3
69,16:6
69,30:2
69,48:11
69,54:6
69,55:6
69,56:6
69,57:6
69,58:5
69,59:8
69,60:2
69,61:6
69,62:5
69,63:2
69,64:10
69,65:8
69,66:6
69,67:10
69,71:3
69,73:3
69,74:3
69,76:3
70,16:6
70,30:2
70,48:11
70,54:6
70,55:6
70,56:6
70,57:6
70,58:5
70,59:8
70,60:2
70,61:6
70,62:5
70,63:2
70,64:10
70,65:8
70,66:6
70,67:10
70,71:3
70,73:3
70,74:3
70,76:3
71,16:3
71,21:3
71,30:1
71,48:8
71,54:3
71,55:3
71,56:3
71,57:3
71,58:2
71,59:5
71,60:5
71,61:3
71,62:2
71,63:1
71,64:7
71,65:5
71,66:3
71,67:7
71,68:3
71,69:3
71,70:3
71,72:3
71,80:6
72,16:6
72,30:2
72,48:11
72,54:6
72,55:6
72,56:6
72,57:6
72,58:5
72,59:8
72,60:2
72,61:6
72,62:5
72,63:2
72,64:10
72,65:8
72,66:6
72,67:10
72,71:3
72,73:3
72,74:3
72,76:3
72,80:3
73,48:8
73,68:3
73,69:3
73,70:3
73,72:3
73,80:6
74,48:8
74,68:3
74,69:3
74,70:3
74,72:3
74,75:3
74,80:6
75,48:11
75,76:3
75,80:3
76,48:8
76,68:3
76,69:3
76,70:3
76,72:3
76,75:3
76,77:3
76,78:3
76,79:3
76,80:6
76,81:6
77,48:11
77,76:3
77,80:3
78,48:11
78,76:3
78,80:3
79,48:11
79,76:3
79,80:3
79,81:3
80,16:9
80,21:3
80,30:5
80,48:14
80,54:9
80,55:9
80,56:9
80,57:9
80,58:8
80,59:11
80,60:1
80,61:9
80,62:8
80,63:5
80,64:13
80,65:11
80,66:9
80,67:13
80,71:6
80,73:6
80,74:6
80,75:3
80,76:6
80,77:3
80,78:3
80,79:3
81,48:14
81,85:14
82,48:14
82,85:14
83,48:14
83,85:14
83,86:14
84,48:14
84,85:14
84,86:14
85,82:14
85,83:14
85,84:14

<setup times backward>
5,1:7
5,2:7
5,3:7
5,4:7
5,6:7
5,7:7
5,8:7
5,9:10
5,30:7
6,9:3
7,9:3
8,9:3
8,15:3
8,16:4
8,17:3
9,16:1
10,1:7
10,2:7
10,3:7
10,4:7
10,6:7
10,7:7
10,8:7
10,9:10
10,30:7
11,1:7
11,2:7
11,3:7
11,4:7
11,6:7
11,7:7
11,8:7
11,9:10
11,30:7
12,1:7
12,2:7
12,3:7
12,4:7
12,6:7
12,7:7
12,8:7
12,9:10
12,30:7
13,1:7
13,2:7
13,3:7
13,4:7
13,6:7
13,7:7
13,8:7
13,9:10
13,30:7
14,1:7
14,2:7
14,3:7
14,4:7
14,6:7
14,7:7
14,8:7
14,9:10
14,30:7
15,16:1
16,34:2
16,35:2
16,37:2
16,40:4
16,44:4
16,48:5
16,50:4
16,51:4
16,52:4
17,16:1
18,16:1
19,16:1
19,54:1
19,55:1
19,56:1
19,57:1
19,59:3
19,61:1
19,64:5
19,65:3
19,66:1
19,67:5
20,1:3
20,2:3
20,3:3
20,4:3
20,6:3
20,7:3
20,8:3
20,9:6
20,15:6
20,16:7
20,17:6
20,18:6
20,19:6
20,23:1
20,24:1
20,25:1
20,26:1
20,27:7
20,30:3
21,1:2
21,2:2
21,3:2
21,4:2
21,6:2
21,7:2
21,8:2
21,9:5
21,15:5
21,16:6
21,17:5
21,18:5
21,19:5
21,27:6
21,29:2
21,30:2
21,31:2
21,32:2
21,33:2
21,34:8
21,35:8
21,37:8
21,40:10
21,41:5
21,42:3
21,43:5
21,44:10
21,45:5
21,46:5
21,47:5
21,48:11
21,49:5
21,50:10
21,51:10
21,52:10
21,53:3
21,71:3
22,1:3
22,2:3
22,3:3
22,4:3
22,6:3
22,7:3
22,8:3
22,9:6
22,15:6
22,16:7
22,17:6
22,18:6
22,19:6
22,21:1
22,30:3
22,54:7
22,55:7
22,56:7
22,57:7
22,58:6
22,59:9
22,61:7
22,62:6
22,63:3
22,64:11
22,65:9
22,66:7
22,67:11
23,1:2
23,2:2
23,3:2
23,4:2
23,6:2
23,7:2
23,8:2
23,9:5
23,15:5
23,16:6
23,17:5
23,18:5
23,19:5
23,30:2
23,54:6
23,55:6
23,56:6
23,57:6
23,58:5
23,59:8
23,61:6
23,62:5
23,63:2
23,64:10
23,65:8
23,66:6
23,67:10
24,1:2
24,2:2
24,3:2
24,4:2
24,6:2
24,7:2
24,8:2
24,9:5
24,15:5
24,16:6
24,17:5
24,18:5
24,19:5
24,30:2
24,54:6
24,55:6
24,56:6
24,57:6
24,58:5
24,59:8
24,61:6
24,62:5
24,63:2
24,64:10
24,65:8
24,66:6
24,67:10
25,1:2
25,2:2
25,3:2
25,4:2
25,6:2
25,7:2
25,8:2
25,9:5
25,15:5
25,16:6
25,17:5
25,18:5
25,19:5
25,30:2
25,54:6
25,55:6
25,56:6
25,57:6
25,58:5
25,59:8
25,61:6
25,62:5
25,63:2
25,64:10
25,65:8
25,66:6
25,67:10
26,1:2
26,2:2
26,3:2
26,4:2
26,6:2
26,7:2
26,8:2
26,9:5
26,15:5
26,16:6
26,17:5
26,18:5
26,19:5
26,27:6
26,29:2
26,30:2
26,31:2
26,32:2
26,33:2
26,34:8
26,35:8
26,54:6
26,55:6
26,56:6
26,57:6
26,58:5
26,59:8
26,61:6
26,62:5
26,63:2
26,64:10
26,65:8
26,66:6
26,67:10
27,59:2
27,64:4
27,65:2
27,67:4
28,1:3
28,2:3
28,3:3
28,4:3
28,6:3
28,7:3
28,8:3
28,9:6
28,15:6
28,16:7
28,17:6
28,18:6
28,19:6
28,21:1
28,23:1
28,24:1
28,25:1
28,26:1
28,27:7
28,30:3
28,54:7
28,55:7
28,56:7
28,57:7
28,58:6
28,59:9
28,61:7
28,62:6
28,63:3
28,64:11
28,65:9
28,66:7
28,67:11
29,9:3
29,15:3
29,16:4
29,17:3
29,18:3
29,19:3
29,27:4
29,54:4
29,55:4
29,56:4
29,57:4
29,58:3
29,59:6
29,61:4
29,62:3
29,64:8
29,65:6
29,66:4
29,67:8
30,9:3
30,15:3
30,16:4
30,17:3
30,18:3
30,19:3
30,27:4
30,34:6
30,35:6
30,37:6
30,40:8
30,41:3
30,42:1
30,43:3
30,44:8
30,45:3
30,46:3
30,47:3
30,48:9
30,49:3
30,50:8
30,51:8
30,52:8
30,53:1
30,71:1
31,9:3
31,15:3
31,16:4
31,17:3
31,18:3
31,19:3
31,27:4
31,54:4
31,55:4
31,56:4
31,57:4
31,58:3
31,59:6
31,61:4
31,62:3
31,64:8
31,65:6
31,66:4
31,67:8
32,9:3
32,15:3
32,16:4
32,17:3
32,18:3
32,19:3
32,27:4
32,54:4
32,55:4
32,56:4
32,57:4
32,58:3
32,59:6
32,61:4
32,62:3
32,64:8
32,65:6
32,66:4
32,67:8
33,9:3
33,15:3
33,16:4
33,17:3
33,18:3
33,19:3
33,27:4
33,54:4
33,55:4
33,56:4
33,57:4
33,58:3
33,59:6
33,61:4
33,62:3
33,64:8
33,65:6
33,66:4
33,67:8
34,64:2
34,67:2
35,64:2
35,67:2
36,1:4
36,2:4
36,3:4
36,4:4
36,6:4
36,7:4
36,8:4
36,9:7
36,15:7
36,16:8
36,17:7
36,18:7
36,19:7
36,20:1
36,21:2
36,22:1
36,23:2
36,24:2
36,25:2
36,26:2
36,27:8
36,28:1
36,29:4
36,30:4
36,31:4
36,32:4
36,33:4
36,34:10
36,35:10
36,37:10
36,54:8
36,55:8
36,56:8
36,57:8
36,58:7
36,59:10
36,61:8
36,62:7
36,63:4
36,64:12
36,65:10
36,66:8
36,67:12
37,64:2
37,67:2
38,1:4
38,2:4
38,3:4
38,4:4
38,6:4
38,7:4
38,8:4
38,9:7
38,15:7
38,16:8
38,17:7
38,18:7
38,19:7
38,20:1
38,21:2
38,22:1
38,23:2
38,24:2
38,25:2
38,26:2
38,27:8
38,28:1
38,29:4
38,30:4
38,31:4
38,32:4
38,33:4
38,34:10
38,35:10
38,37:10
38,54:8
38,55:8
38,56:8
38,57:8
38,58:7
38,59:10
38,61:8
38,62:7
38,63:4
38,64:12
38,65:10
38,66:8
38,67:12
39,1:4
39,2:4
39,3:4
39,4:4
39,6:4
39,7:4
39,8:4
39,9:7
39,15:7
39,16:8
39,17:7
39,18:7
39,19:7
39,20:1
39,21:2
39,22:1
39,23:2
39,24:2
39,25:2
39,26:2
39,27:8
39,28:1
39,29:4
39,30:4
39,31:4
39,32:4
39,33:4
39,34:10
39,35:10
39,37:10
39,54:8
39,55:8
39,56:8
39,57:8
39,58:7
39,59:10
39,61:8
39,62:7
39,63:4
39,64:12
39,65:10
39,66:8
39,67:12
40,48:1
41,16:1
41,27:1
41,34:3
41,35:3
41,37:3
41,40:5
41,44:5
41,48:6
41,50:5
41,51:5
41,52:5
41,54:1
41,55:1
41,56:1
41,57:1
41,59:3
41,61:1
41,64:5
41,65:3
41,66:1
41,67:5
42,9:2
42,15:2
42,16:3
42,17:2
42,18:2
42,19:2
42,27:3
42,34:5
42,35:5
42,37:5
42,40:7
42,41:2
42,43:2
42,44:7
42,45:2
42,46:2
42,47:2
42,48:8
42,49:2
42,50:7
42,51:7
42,52:7
42,54:3
42,55:3
42,56:3
42,57:3
42,58:2
42,59:5
42,61:3
42,62:2
42,64:7
42,65:5
42,66:3
42,67:7
43,16:1
43,27:1
43,34:3
43,35:3
43,37:3
43,40:5
43,44:5
43,54:1
43,55:1
43,56:1
43,57:1
43,59:3
43,61:1
43,64:5
43,65:3
43,66:1
43,67:5
44,48:1
45,16:1
45,27:1
45,34:3
45,35:3
45,37:3
45,40:5
45,44:5
45,54:1
45,55:1
45,56:1
45,57:1
45,59:3
45,61:1
45,64:5
45,65:3
45,66:1
45,67:5
46,16:1
46,27:1
46,34:3
46,35:3
46,37:3
46,40:5
46,44:5
46,54:1
46,55:1
46,56:1
46,57:1
46,59:3
46,61:1
46,64:5
46,65:3
46,66:1
46,67:5
47,16:1
47,27:1
47,34:3
47,35:3
47,37:3
47,40:5
47,44:5
47,54:1
47,55:1
47,56:1
47,57:1
47,59:3
47,61:1
47,64:5
47,65:3
47,66:1
47,67:5
49,16:1
49,27:1
49,34:3
49,35:3
49,37:3
49,40:5
49,44:5
49,48:6
49,54:1
49,55:1
49,56:1
49,57:1
49,59:3
49,61:1
49,64:5
49,65:3
49,66:1
49,67:5
50,48:1
51,48:1
52,48:1
53,9:2
53,15:2
53,16:3
53,17:2
53,18:2
53,19:2
53,27:3
53,34:5
53,35:5
53,37:5
53,40:7
53,41:2
53,43:2
53,44:7
53,45:2
53,46:2
53,47:2
53,48:8
53,49:2
53,50:7
53,51:7
53,52:7
53,54:3
53,55:3
53,56:3
53,57:3
53,58:2
53,59:5
53,61:3
53,62:2
53,64:7
53,65:5
53,66:3
53,67:7
54,34:2
54,35:2
54,37:2
54,40:4
54,44:4
54,48:5
54,50:4
54,51:4
54,52:4
55,34:2
55,35:2
55,37:2
55,40:4
55,44:4
55,48:5
55,50:4
55,51:4
55,52:4
56,34:2
56,35:2
56,37:2
56,40:4
56,44:4
56,48:5
56,50:4
56,51:4
56,52:4
57,34:2
57,35:2
57,37:2
57,40:4
57,44:4
57,48:5
57,50:4
57,51:4
57,52:4
58,16:1
58,27:1
58,34:3
58,35:3
58,37:3
58,40:5
58,44:5
58,48:6
58,50:5
58,51:5
58,52:5
58,54:1
58,55:1
58,56:1
58,57:1
58,59:3
58,61:1
58,64:5
58,65:3
58,66:1
59,40:2
59,44:2
59,48:3
59,50:2
59,51:2
59,52:2
59,64:2
60,1:4
60,2:4
60,3:4
60,4:4
60,6:4
60,7:4
60,8:4
60,9:7
60,15:7
60,16:8
60,17:7
60,18:7
60,19:7
60,20:1
60,21:2
60,22:1
60,23:2
60,24:2
60,25:2
60,26:2
60,27:8
60,28:1
60,29:4
60,30:4
60,31:4
60,32:4
60,33:4
60,34:10
60,35:10
60,37:10
60,40:12
60,41:7
60,42:5
60,43:7
60,44:12
60,45:7
60,46:7
60,47:7
60,48:13
60,49:7
60,50:12
60,51:12
60,52:12
60,53:5
60,54:8
60,55:8
60,56:8
60,57:8
60,58:7
60,59:10
60,61:8
60,62:7
60,63:4
60,64:12
60,65:10
60,66:8
60,68:2
60,69:2
60,70:2
60,71:5
60,72:2
61,34:2
61,35:2
61,37:2
61,40:4
61,44:4
61,48:5
61,50:4
61,51:4
61,52:4
61,59:2
61,64:4
61,65:2
62,16:1
62,27:1
62,34:3
62,35:3
62,37:3
62,40:5
62,44:5
62,48:6
62,50:5
62,51:5
62,52:5
62,54:1
62,55:1
62,56:1
62,57:1
62,59:3
62,61:1
62,64:5
62,65:3
62,66:1
63,9:3
63,15:3
63,16:4
63,17:3
63,18:3
63,19:3
63,27:4
63,34:6
63,35:6
63,37:6
63,40:8
63,41:3
63,42:1
63,43:3
63,44:8
63,45:3
63,46:3
63,47:3
63,48:9
63,49:3
63,50:8
63,51:8
63,52:8
63,53:1
63,54:4
63,55:4
63,56:4
63,57:4
63,58:3
63,59:6
63,61:4
63,62:3
63,64:8
63,65:6
63,66:4
63,71:1
64,48:1
65,40:2
65,44:2
65,48:3
65,50:2
65,51:2
65,52:2
65,64:2
66,34:2
66,35:2
66,37:2
66,40:4
66,44:4
66,48:5
66,50:4
66,51:4
66,52:4
66,59:2
66,64:4
66,65:2
67,48:1
68,1:2
68,2:2
68,3:2
68,4:2
68,6:2
68,7:2
68,8:2
68,9:5
68,15:5
68,16:6
68,17:5
68,18:5
68,19:5
68,27:6
68,29:2
68,30:2
68,31:2
68,32:2
68,33:2
68,34:8
68,35:8
68,37:8
68,40:10
68,41:5
68,42:3
68,43:5
68,44:10
68,45:5
68,46:5
68,47:5
68,48:11
68,49:5
68,50:10
68,51:10
68,52:10
68,53:3
68,54:6
68,55:6
68,56:6
68,57:6
68,58:5
68,59:8
68,61:6
68,62:5
68,63:2
68,64:10
68,65:8
68,66:6
68,67:10
68,71:3
68,73:3
68,74:3
68,76:3
69,1:2
69,2:2
69,3:2
69,4:2
69,6:2
69,7:2
69,8:2
69,9:5
69,15:5
69,16:6
69,17:5
69,18:5
69,19:5
69,27:6
69,29:2
69,30:2
69,31:2
69,32:2
69,33:2
69,34:8
69,35:8
69,37:8
69,40:10
69,41:5
69,42:3
69,43:5
69,44:10
69,45:5
69,46:5
69,47:5
69,48:11
69,49:5
69,50:10
69,51:10
69,52:10
69,53:3
69,54:6
69,55:6
69,56:6
69,57:6
69,58:5
69,59:8
69,61:6
69,62:5
69,63:2
69,64:10
69,65:8
69,66:6
69,67:10
69,71:3
69,73:3
69,74:3
69,76:3
70,1:2
70,2:2
70,3:2
70,4:2
70,6:2
70,7:2
70,8:2
70,9:5
70,15:5
70,16:6
70,17:5
70,18:5
70,19:5
70,27:6
70,29:2
70,30:2
70,31:2
70,32:2
70,33:2
70,34:8
70,35:8
70,37:8
70,40:10
70,41:5
70,42:3
70,43:5
70,44:10
70,45:5
70,46:5
70,47:5
70,48:11
70,49:5
70,50:10
70,51:10
70,52:10
70,53:3
70,54:6
70,55:6
70,56:6
70,57:6
70,58:5
70,59:8
70,61:6
70,62:5
70,63:2
70,64:10
70,65:8
70,66:6
70,67:10
70,71:3
70,73:3
70,74:3
70,76:3
71,9:2
71,15:2
71,16:3
71,17:2
71,18:2
71,19:2
71,27:3
71,34:5
71,35:5
71,37:5
71,40:7
71,41:2
71,43:2
71,44:7
71,45:2
71,46:2
71,47:2
71,48:8
71,49:2
71,50:7
71,51:7
71,52:7
71,54:3
71,55:3
71,56:3
71,57:3
71,58:2
71,59:5
71,61:3
71,62:2
71,64:7
71,65:5
71,66:3
71,67:7
72,1:2
72,2:2
72,3:2
72,4:2
72,6:2
72,7:2
72,8:2
72,9:5
72,15:5
72,16:6
72,17:5
72,18:5
72,19:5
72,27:6
72,29:2
72,30:2
72,31:2
72,32:2
72,33:2
72,34:8
72,35:8
72,37:8
72,40:10
72,41:5
72,42:3
72,43:5
72,44:10
72,45:5
72,46:5
72,47:5
72,48:11
72,49:5
72,50:10
72,51:10
72,52:10
72,53:3
72,54:6
72,55:6
72,56:6
72,57:6
72,58:5
72,59:8
72,61:6
72,62:5
72,63:2
72,64:10
72,65:8
72,66:6
72,67:10
72,71:3
72,73:3
72,74:3
72,76:3
73,9:2
73,15:2
73,16:3
73,17:2
73,18:2
73,19:2
73,27:3
73,34:5
73,35:5
73,37:5
73,40:7
73,41:2
73,43:2
73,44:7
73,45:2
73,46:2
73,47:2
73,48:8
73,49:2
73,50:7
73,51:7
73,52:7
73,54:3
73,55:3
73,56:3
73,57:3
73,58:2
73,59:5
73,61:3
73,62:2
73,64:7
73,65:5
73,66:3
73,67:7
74,9:2
74,15:2
74,16:3
74,17:2
74,18:2
74,19:2
74,27:3
74,34:5
74,35:5
74,37:5
74,40:7
74,41:2
74,43:2
74,44:7
74,45:2
74,46:2
74,47:2
74,48:8
74,49:2
74,50:7
74,51:7
74,52:7
74,54:3
74,55:3
74,56:3
74,57:3
74,58:2
74,59:5
74,61:3
74,62:2
74,64:7
74,65:5
74,66:3
74,67:7
75,1:2
75,2:2
75,3:2
75,4:2
75,6:2
75,7:2
75,8:2
75,9:5
75,15:5
75,16:6
75,17:5
75,18:5
75,19:5
75,27:6
75,29:2
75,30:2
75,31:2
75,32:2
75,33:2
75,34:8
75,35:8
75,37:8
75,40:10
75,41:5
75,42:3
75,43:5
75,44:10
75,45:5
75,46:5
75,47:5
75,48:11
75,49:5
75,50:10
75,51:10
75,52:10
75,53:3
75,54:6
75,55:6
75,56:6
75,57:6
75,58:5
75,59:8
75,61:6
75,62:5
75,63:2
75,64:10
75,65:8
75,66:6
75,67:10
75,71:3
75,73:3
75,74:3
75,76:3
76,9:2
76,15:2
76,16:3
76,17:2
76,18:2
76,19:2
76,27:3
76,34:5
76,35:5
76,37:5
76,40:7
76,41:2
76,43:2
76,44:7
76,45:2
76,46:2
76,47:2
76,48:8
76,49:2
76,50:7
76,51:7
76,52:7
76,54:3
76,55:3
76,56:3
76,57:3
76,58:2
76,59:5
76,61:3
76,62:2
76,64:7
76,65:5
76,66:3
76,67:7
77,1:2
77,2:2
77,3:2
77,4:2
77,6:2
77,7:2
77,8:2
77,9:5
77,15:5
77,16:6
77,17:5
77,18:5
77,19:5
77,27:6
77,29:2
77,30:2
77,31:2
77,32:2
77,33:2
77,34:8
77,35:8
77,37:8
77,40:10
77,41:5
77,42:3
77,43:5
77,44:10
77,45:5
77,46:5
77,47:5
77,48:11
77,49:5
77,50:10
77,51:10
77,52:10
77,53:3
77,54:6
77,55:6
77,56:6
77,57:6
77,58:5
77,59:8
77,61:6
77,62:5
77,63:2
77,64:10
77,65:8
77,66:6
77,67:10
77,71:3
77,73:3
77,74:3
77,76:3
78,1:2
78,2:2
78,3:2
78,4:2
78,6:2
78,7:2
78,8:2
78,9:5
78,15:5
78,16:6
78,17:5
78,18:5
78,19:5
78,27:6
78,29:2
78,30:2
78,31:2
78,32:2
78,33:2
78,34:8
78,35:8
78,37:8
78,40:10
78,41:5
78,42:3
78,43:5
78,44:10
78,45:5
78,46:5
78,47:5
78,48:11
78,49:5
78,50:10
78,51:10
78,52:10
78,53:3
78,54:6
78,55:6
78,56:6
78,57:6
78,58:5
78,59:8
78,61:6
78,62:5
78,63:2
78,64:10
78,65:8
78,66:6
78,67:10
78,71:3
78,73:3
78,74:3
78,76:3
79,1:2
79,2:2
79,3:2
79,4:2
79,6:2
79,7:2
79,8:2
79,9:5
79,15:5
79,16:6
79,17:5
79,18:5
79,19:5
79,27:6
79,29:2
79,30:2
79,31:2
79,32:2
79,33:2
79,34:8
79,35:8
79,37:8
79,40:10
79,41:5
79,42:3
79,43:5
79,44:10
79,45:5
79,46:5
79,47:5
79,48:11
79,49:5
79,50:10
79,51:10
79,52:10
79,53:3
79,54:6
79,55:6
79,56:6
79,57:6
79,58:5
79,59:8
79,61:6
79,62:5
79,63:2
79,64:10
79,65:8
79,66:6
79,67:10
79,71:3
79,73:3
79,74:3
79,76:3
80,1:5
80,2:5
80,3:5
80,4:5
80,6:5
80,7:5
80,8:5
80,9:8
80,15:8
80,16:9
80,17:8
80,18:8
80,19:8
80,20:2
80,21:3
80,22:2
80,23:3
80,24:3
80,25:3
80,26:3
80,27:9
80,28:2
80,29:5
80,30:5
80,31:5
80,32:5
80,33:5
80,34:11
80,35:11
80,36:1
80,37:11
80,38:1
80,39:1
80,40:13
80,41:8
80,42:6
80,43:8
80,44:13
80,45:8
80,46:8
80,47:8
80,48:14
80,49:8
80,50:13
80,51:13
80,52:13
80,53:6
80,54:9
80,55:9
80,56:9
80,57:9
80,58:8
80,59:11
80,60:1
80,61:9
80,62:8
80,63:5
80,64:13
80,65:11
80,66:9
80,67:13
80,68:3
80,69:3
80,70:3
80,71:6
80,72:3
80,73:6
80,74:6
80,75:3
80,76:6
80,77:3
80,78:3
80,79:3
81,1:5
81,2:5
81,3:5
81,4:5
81,6:5
81,7:5
81,8:5
81,9:8
81,15:8
81,16:9
81,17:8
81,18:8
81,19:8
81,20:2
81,21:3
81,22:2
81,23:3
81,24:3
81,25:3
81,26:3
81,27:9
81,28:2
81,29:5
81,30:5
81,31:5
81,32:5
81,33:5
81,34:11
81,35:11
81,36:1
81,37:11
81,38:1
81,39:1
81,40:13
81,41:8
81,42:6
81,43:8
81,44:13
81,45:8
81,46:8
81,47:8
81,48:14
81,49:8
81,50:13
81,51:13
81,52:13
81,53:6
81,54:9
81,55:9
81,56:9
81,57:9
81,58:8
81,59:11
81,60:1
81,61:9
81,62:8
81,63:5
81,64:13
81,65:11
81,66:9
81,67:13
81,68:3
81,69:3
81,70:3
81,71:6
81,72:3
81,73:6
81,74:6
81,75:3
81,76:6
81,77:3
81,78:3
81,79:3
82,1:5
82,2:5
82,3:5
82,4:5
82,6:5
82,7:5
82,8:5
82,9:8
82,15:8
82,16:9
82,17:8
82,18:8
82,19:8
82,20:2
82,21:3
82,22:2
82,23:3
82,24:3
82,25:3
82,26:3
82,27:9
82,28:2
82,29:5
82,30:5
82,31:5
82,32:5
82,33:5
82,34:11
82,35:11
82,36:1
82,37:11
82,38:1
82,39:1
82,40:13
82,41:8
82,42:6
82,43:8
82,44:13
82,45:8
82,46:8
82,47:8
82,48:14
82,49:8
82,50:13
82,51:13
82,52:13
82,53:6
82,54:9
82,55:9
82,56:9
82,57:9
82,58:8
82,59:11
82,60:1
82,61:9
82,62:8
82,63:5
82,64:13
82,65:11
82,66:9
82,67:13
82,68:3
82,69:3
82,70:3
82,71:6
82,72:3
82,73:6
82,74:6
82,75:3
82,76:6
82,77:3
82,78:3
82,79:3
82,85:14
83,1:5
83,2:5
83,3:5
83,4:5
83,6:5
83,7:5
83,8:5
83,9:8
83,15:8
83,16:9
83,17:8
83,18:8
83,19:8
83,20:2
83,21:3
83,22:2
83,23:3
83,24:3
83,25:3
83,26:3
83,27:9
83,28:2
83,29:5
83,30:5
83,31:5
83,32:5
83,33:5
83,34:11
83,35:11
83,36:1
83,37:11
83,38:1
83,39:1
83,40:13
83,41:8
83,42:6
83,43:8
83,44:13
83,45:8
83,46:8
83,47:8
83,48:14
83,49:8
83,50:13
83,51:13
83,52:13
83,53:6
83,54:9
83,55:9
83,56:9
83,57:9
83,58:8
83,59:11
83,60:1
83,61:9
83,62:8
83,63:5
83,64:13
83,65:11
83,66:9
83,67:13
83,68:3
83,69:3
83,70:3
83,71:6
83,72:3
83,73:6
83,74:6
83,75:3
83,76:6
83,77:3
83,78:3
83,79:3
83,85:14
84,1:5
84,2:5
84,3:5
84,4:5
84,6:5
84,7:5
84,8:5
84,9:8
84,15:8
84,16:9
84,17:8
84,18:8
84,19:8
84,20:2
84,21:3
84,22:2
84,23:3
84,24:3
84,25:3
84,26:3
84,27:9
84,28:2
84,29:5
84,30:5
84,31:5
84,32:5
84,33:5
84,34:11
84,35:11
84,36:1
84,37:11
84,38:1
84,39:1
84,40:13
84,41:8
84,42:6
84,43:8
84,44:13
84,45:8
84,46:8
84,47:8
84,48:14
84,49:8
84,50:13
84,51:13
84,52:13
84,53:6
84,54:9
84,55:9
84,56:9
84,57:9
84,58:8
84,59:11
84,60:1
84,61:9
84,62:8
84,63:5
84,64:13
84,65:11
84,66:9
84,67:13
84,68:3
84,69:3
84,70:3
84,71:6
84,72:3
84,73:6
84,74:6
84,75:3
84,76:6
84,77:3
84,78:3
84,79:3
84,85:14

<end>

<optimal SALBP-1 value>
15


<rand seed>
467321153

